CH4
1.0
       10.0000000000         0.0000000000         0.0000000000
        0.0000000000        10.0000000000         0.0000000000
        0.0000000000         0.0000000000        10.0000000000
    C    H
    1    4
Cartensian
     0.000000000         0.000000000         0.000000000
     1.08831             0.000000000         0.000000000
     -0.36283            1.02606        0.0000000000
     -0.36283            -0.51308          0.88857
     -0.36276            -0.51304          -0.88864
